NAME : X-n331-k15
COMMENT : "Generated by Uchoa, Pecin, Pessoa, Poggi, Subramanian, and Vidal (2013)"
TYPE : CVRP
DIMENSION : 331
EDGE_WEIGHT_TYPE : EUC_2D
CAPACITY : 23
NODE_COORD_SECTION
1 0 0
2 2 857
3 407 102
4 915 965
5 797 45
6 997 241
7 650 683
8 748 248
9 99 174
10 2 545
11 277 689
12 568 771
13 76 105
14 117 973
15 171 971
16 327 183
17 277 697
18 269 246
19 670 18
20 51 901
21 951 696
22 710 102
23 61 465
24 348 606
25 551 243
26 524 793
27 89 582
28 900 748
29 235 368
30 122 587
31 449 781
32 970 38
33 362 490
34 742 267
35 289 115
36 898 957
37 996 922
38 951 633
39 713 779
40 603 247
41 402 363
42 143 0
43 274 608
44 81 422
45 550 408
46 43 699
47 482 575
48 909 254
49 613 37
50 202 575
51 297 297
52 736 288
53 464 127
54 499 491
55 635 531
56 796 328
57 184 941
58 641 824
59 863 673
60 396 950
61 555 631
62 664 966
63 301 260
64 425 990
65 559 746
66 431 827
67 724 472
68 847 51
69 888 721
70 136 331
71 859 627
72 206 5
73 429 381
74 798 918
75 886 684
76 123 488
77 779 445
78 764 43
79 938 743
80 800 398
81 734 20
82 211 678
83 601 545
84 512 403
85 796 106
86 644 810
87 416 973
88 115 435
89 667 91
90 395 941
91 374 546
92 546 191
93 754 255
94 124 588
95 423 929
96 314 637
97 668 268
98 321 786
99 960 423
100 11 499
101 721 692
102 803 584
103 337 475
104 806 773
105 429 478
106 214 547
107 361 166
108 944 218
109 12 468
110 527 255
111 789 724
112 250 862
113 892 896
114 545 806
115 832 12
116 628 495
117 194 884
118 395 309
119 655 39
120 558 175
121 247 947
122 36 394
123 877 451
124 599 724
125 83 489
126 754 703
127 65 35
128 889 230
129 938 307
130 662 394
131 248 220
132 642 549
133 747 86
134 201 643
135 400 574
136 653 798
137 653 904
138 643 138
139 951 307
140 793 865
141 500 726
142 585 586
143 285 769
144 511 898
145 336 912
146 454 207
147 239 951
148 335 815
149 911 708
150 2 239
151 602 984
152 372 799
153 177 756
154 816 435
155 617 639
156 806 796
157 793 584
158 803 561
159 479 831
160 397 20
161 618 113
162 702 902
163 838 111
164 989 451
165 215 154
166 581 757
167 294 174
168 997 332
169 350 909
170 335 941
171 906 354
172 920 675
173 493 469
174 187 284
175 678 127
176 831 755
177 316 319
178 188 134
179 73 608
180 884 613
181 193 831
182 717 851
183 508 52
184 809 556
185 705 769
186 983 312
187 847 359
188 415 658
189 132 789
190 520 413
191 913 564
192 90 256
193 960 936
194 693 559
195 980 347
196 300 456
197 376 144
198 192 177
199 272 525
200 88 626
201 772 743
202 540 206
203 474 559
204 575 901
205 241 949
206 583 602
207 215 48
208 460 683
209 81 368
210 998 835
211 585 234
212 522 137
213 294 501
214 788 392
215 621 498
216 116 698
217 81 236
218 788 277
219 817 861
220 678 560
221 351 354
222 156 507
223 617 486
224 218 189
225 213 23
226 884 616
227 923 177
228 829 814
229 479 307
230 285 153
231 584 878
232 176 928
233 166 656
234 507 183
235 907 171
236 7 792
237 995 412
238 22 787
239 149 784
240 649 933
241 885 309
242 131 560
243 22 81
244 502 640
245 462 970
246 465 114
247 192 569
248 547 473
249 557 408
250 480 579
251 775 395
252 845 753
253 701 529
254 962 95
255 842 847
256 31 68
257 627 629
258 524 322
259 918 853
260 823 774
261 775 894
262 109 935
263 478 480
264 511 488
265 785 899
266 487 121
267 453 440
268 470 598
269 1 111
270 756 89
271 728 583
272 647 753
273 973 391
274 842 559
275 637 397
276 72 370
277 948 485
278 999 268
279 471 517
280 350 131
281 381 534
282 310 467
283 973 212
284 164 485
285 429 565
286 186 426
287 838 897
288 779 143
289 452 1
290 866 928
291 214 623
292 532 586
293 513 152
294 915 772
295 204 585
296 343 558
297 877 720
298 730 272
299 364 617
300 210 569
301 514 296
302 33 761
303 202 695
304 706 395
305 597 866
306 376 83
307 679 434
308 483 578
309 0 299
310 639 101
311 709 590
312 774 925
313 804 864
314 528 192
315 660 561
316 888 7
317 788 712
318 79 750
319 854 884
320 710 665
321 939 390
322 156 683
323 62 737
324 207 501
325 944 334
326 952 915
327 14 440
328 923 386
329 693 370
330 485 885
331 890 951
PICKUP_AND_DELIVERY_SECTION
1 0 0 1000000000 0 0 0
2 0 0 1000000000 0 0.00233 0.9977
3 0 0 1000000000 0 0.2506 0.7494
4 0 0 1000000000 0 0.9482 0.05181
5 0 0 1000000000 0 0.05646 0.9435
6 0 0 1000000000 0 0.2417 0.7583
7 0 0 1000000000 0 0.9517 0.04832
8 0 0 1000000000 0 0.3316 0.6684
9 0 0 1000000000 0 0.569 0.431
10 0 0 1000000000 0 0.00367 0.9963
11 0 0 1000000000 0 0.402 0.598
12 0 0 1000000000 0 0.7367 0.2633
13 0 0 1000000000 0 0.7238 0.2762
14 0 0 1000000000 0 0.1202 0.8798
15 0 0 1000000000 0 0.1761 0.8239
16 0 0 1000000000 0 0.5596 0.4404
17 0 0 1000000000 0 0.3974 0.6026
18 0 0 1000000000 0 0.9145 0.0855
19 0 0 1000000000 0 0.02687 0.9731
20 0 0 1000000000 0 0.0566 0.9434
21 0 0 1000000000 0 0.7319 0.2681
22 0 0 1000000000 0 0.1437 0.8563
23 0 0 1000000000 0 0.1312 0.8688
24 0 0 1000000000 0 0.5743 0.4257
25 0 0 1000000000 0 0.441 0.559
26 0 0 1000000000 0 0.6608 0.3392
27 0 0 1000000000 0 0.1529 0.8471
28 0 0 1000000000 0 0.8311 0.1689
29 0 0 1000000000 0 0.6386 0.3614
30 0 0 1000000000 0 0.2078 0.7922
31 0 0 1000000000 0 0.5749 0.4251
32 0 0 1000000000 0 0.03918 0.9608
33 0 0 1000000000 0 0.7388 0.2612
34 0 0 1000000000 0 0.3598 0.6402
35 0 0 1000000000 0 0.3979 0.6021
36 0 0 1000000000 0 0.9383 0.06165
37 0 0 1000000000 0 0.9257 0.0743
38 0 0 1000000000 0 0.6656 0.3344
39 0 0 1000000000 0 0.9153 0.08472
40 0 0 1000000000 0 0.4096 0.5904
41 0 0 1000000000 0 0.903 0.09701
42 0 0 1000000000 0 0 1
43 0 0 1000000000 0 0.4507 0.5493
44 0 0 1000000000 0 0.1919 0.8081
45 0 0 1000000000 0 0.7418 0.2582
46 0 0 1000000000 0 0.06152 0.9385
47 0 0 1000000000 0 0.8383 0.1617
48 0 0 1000000000 0 0.2794 0.7206
49 0 0 1000000000 0 0.06036 0.9396
50 0 0 1000000000 0 0.3513 0.6487
51 0 0 1000000000 0 1 0
52 0 0 1000000000 0 0.3913 0.6087
53 0 0 1000000000 0 0.2737 0.7263
54 0 0 1000000000 0 0.984 0.01603
55 0 0 1000000000 0 0.8362 0.1638
56 0 0 1000000000 0 0.4121 0.5879
57 0 0 1000000000 0 0.1955 0.8045
58 0 0 1000000000 0 0.7779 0.2221
59 0 0 1000000000 0 0.7798 0.2202
60 0 0 1000000000 0 0.4168 0.5832
61 0 0 1000000000 0 0.8796 0.1204
62 0 0 1000000000 0 0.6874 0.3126
63 0 0 1000000000 0 0.8638 0.1362
64 0 0 1000000000 0 0.4293 0.5707
65 0 0 1000000000 0 0.7493 0.2507
66 0 0 1000000000 0 0.5212 0.4788
67 0 0 1000000000 0 0.6519 0.3481
68 0 0 1000000000 0 0.06021 0.9398
69 0 0 1000000000 0 0.8119 0.1881
70 0 0 1000000000 0 0.4109 0.5891
71 0 0 1000000000 0 0.7299 0.2701
72 0 0 1000000000 0 0.02427 0.9757
73 0 0 1000000000 0 0.8881 0.1119
74 0 0 1000000000 0 0.8693 0.1307
75 0 0 1000000000 0 0.772 0.228
76 0 0 1000000000 0 0.252 0.748
77 0 0 1000000000 0 0.5712 0.4288
78 0 0 1000000000 0 0.05628 0.9437
79 0 0 1000000000 0 0.7921 0.2079
80 0 0 1000000000 0 0.4975 0.5025
81 0 0 1000000000 0 0.02725 0.9728
82 0 0 1000000000 0 0.3112 0.6888
83 0 0 1000000000 0 0.9068 0.09318
84 0 0 1000000000 0 0.7871 0.2129
85 0 0 1000000000 0 0.1332 0.8668
86 0 0 1000000000 0 0.7951 0.2049
87 0 0 1000000000 0 0.4275 0.5725
88 0 0 1000000000 0 0.2644 0.7356
89 0 0 1000000000 0 0.1364 0.8636
90 0 0 1000000000 0 0.4198 0.5802
91 0 0 1000000000 0 0.685 0.315
92 0 0 1000000000 0 0.3498 0.6502
93 0 0 1000000000 0 0.3382 0.6618
94 0 0 1000000000 0 0.2109 0.7891
95 0 0 1000000000 0 0.4553 0.5447
96 0 0 1000000000 0 0.4929 0.5071
97 0 0 1000000000 0 0.4012 0.5988
98 0 0 1000000000 0 0.4084 0.5916
99 0 0 1000000000 0 0.4406 0.5594
100 0 0 1000000000 0 0.02204 0.978
101 0 0 1000000000 0 0.9598 0.04022
102 0 0 1000000000 0 0.7273 0.2727
103 0 0 1000000000 0 0.7095 0.2905
104 0 0 1000000000 0 0.9591 0.04094
105 0 0 1000000000 0 0.8975 0.1025
106 0 0 1000000000 0 0.3912 0.6088
107 0 0 1000000000 0 0.4598 0.5402
108 0 0 1000000000 0 0.2309 0.7691
109 0 0 1000000000 0 0.02564 0.9744
110 0 0 1000000000 0 0.4839 0.5161
111 0 0 1000000000 0 0.9176 0.08238
112 0 0 1000000000 0 0.29 0.71
113 0 0 1000000000 0 0.9955 0.00446
114 0 0 1000000000 0 0.6762 0.3238
115 0 0 1000000000 0 0.01442 0.9856
116 0 0 1000000000 0 0.7882 0.2118
117 0 0 1000000000 0 0.2195 0.7805
118 0 0 1000000000 0 0.7823 0.2177
119 0 0 1000000000 0 0.05954 0.9405
120 0 0 1000000000 0 0.3136 0.6864
121 0 0 1000000000 0 0.2608 0.7392
122 0 0 1000000000 0 0.09137 0.9086
123 0 0 1000000000 0 0.5143 0.4857
124 0 0 1000000000 0 0.8273 0.1727
125 0 0 1000000000 0 0.1697 0.8303
126 0 0 1000000000 0 0.9324 0.06764
127 0 0 1000000000 0 0.5385 0.4615
128 0 0 1000000000 0 0.2587 0.7413
129 0 0 1000000000 0 0.3273 0.6727
130 0 0 1000000000 0 0.5952 0.4048
131 0 0 1000000000 0 0.8871 0.1129
132 0 0 1000000000 0 0.8551 0.1449
133 0 0 1000000000 0 0.1151 0.8849
134 0 0 1000000000 0 0.3126 0.6874
135 0 0 1000000000 0 0.6969 0.3031
136 0 0 1000000000 0 0.8183 0.1817
137 0 0 1000000000 0 0.7223 0.2777
138 0 0 1000000000 0 0.2146 0.7854
139 0 0 1000000000 0 0.3228 0.6772
140 0 0 1000000000 0 0.9168 0.08324
141 0 0 1000000000 0 0.6887 0.3113
142 0 0 1000000000 0 0.9983 0.00171
143 0 0 1000000000 0 0.3706 0.6294
144 0 0 1000000000 0 0.569 0.431
145 0 0 1000000000 0 0.3684 0.6316
146 0 0 1000000000 0 0.4559 0.5441
147 0 0 1000000000 0 0.2513 0.7487
148 0 0 1000000000 0 0.411 0.589
149 0 0 1000000000 0 0.7772 0.2228
150 0 0 1000000000 0 0.00837 0.9916
151 0 0 1000000000 0 0.6118 0.3882
152 0 0 1000000000 0 0.4656 0.5344
153 0 0 1000000000 0 0.2341 0.7659
154 0 0 1000000000 0 0.5331 0.4669
155 0 0 1000000000 0 0.9656 0.03443
156 0 0 1000000000 0 0.9876 0.01241
157 0 0 1000000000 0 0.7364 0.2636
158 0 0 1000000000 0 0.6986 0.3014
159 0 0 1000000000 0 0.5764 0.4236
160 0 0 1000000000 0 0.05038 0.9496
161 0 0 1000000000 0 0.1828 0.8172
162 0 0 1000000000 0 0.7783 0.2217
163 0 0 1000000000 0 0.1325 0.8675
164 0 0 1000000000 0 0.456 0.544
165 0 0 1000000000 0 0.7163 0.2837
166 0 0 1000000000 0 0.7675 0.2325
167 0 0 1000000000 0 0.5918 0.4082
168 0 0 1000000000 0 0.333 0.667
169 0 0 1000000000 0 0.385 0.615
170 0 0 1000000000 0 0.356 0.644
171 0 0 1000000000 0 0.3907 0.6093
172 0 0 1000000000 0 0.7337 0.2663
173 0 0 1000000000 0 0.9513 0.04868
174 0 0 1000000000 0 0.6585 0.3415
175 0 0 1000000000 0 0.1873 0.8127
176 0 0 1000000000 0 0.9085 0.09146
177 0 0 1000000000 0 0.9906 0.0094
178 0 0 1000000000 0 0.7128 0.2872
179 0 0 1000000000 0 0.1201 0.8799
180 0 0 1000000000 0 0.6934 0.3066
181 0 0 1000000000 0 0.2323 0.7677
182 0 0 1000000000 0 0.8425 0.1575
183 0 0 1000000000 0 0.1024 0.8976
184 0 0 1000000000 0 0.6873 0.3127
185 0 0 1000000000 0 0.9168 0.08322
186 0 0 1000000000 0 0.3174 0.6826
187 0 0 1000000000 0 0.4238 0.5762
188 0 0 1000000000 0 0.6307 0.3693
189 0 0 1000000000 0 0.1673 0.8327
190 0 0 1000000000 0 0.7942 0.2058
191 0 0 1000000000 0 0.6177 0.3823
192 0 0 1000000000 0 0.3516 0.6484
193 0 0 1000000000 0 0.975 0.025
194 0 0 1000000000 0 0.8066 0.1934
195 0 0 1000000000 0 0.3541 0.6459
196 0 0 1000000000 0 0.6579 0.3421
197 0 0 1000000000 0 0.383 0.617
198 0 0 1000000000 0 0.9219 0.07812
199 0 0 1000000000 0 0.5181 0.4819
200 0 0 1000000000 0 0.1406 0.8594
201 0 0 1000000000 0 0.9624 0.03756
202 0 0 1000000000 0 0.3815 0.6185
203 0 0 1000000000 0 0.8479 0.1521
204 0 0 1000000000 0 0.6382 0.3618
205 0 0 1000000000 0 0.254 0.746
206 0 0 1000000000 0 0.9684 0.03156
207 0 0 1000000000 0 0.2233 0.7767
208 0 0 1000000000 0 0.6735 0.3265
209 0 0 1000000000 0 0.2201 0.7799
210 0 0 1000000000 0 0.8367 0.1633
211 0 0 1000000000 0 0.4 0.6
212 0 0 1000000000 0 0.2625 0.7375
213 0 0 1000000000 0 0.5868 0.4132
214 0 0 1000000000 0 0.4975 0.5025
215 0 0 1000000000 0 0.8019 0.1981
216 0 0 1000000000 0 0.1662 0.8338
217 0 0 1000000000 0 0.3432 0.6568
218 0 0 1000000000 0 0.3515 0.6485
219 0 0 1000000000 0 0.9489 0.0511
220 0 0 1000000000 0 0.826 0.174
221 0 0 1000000000 0 0.9915 0.00847
222 0 0 1000000000 0 0.3077 0.6923
223 0 0 1000000000 0 0.7877 0.2123
224 0 0 1000000000 0 0.867 0.133
225 0 0 1000000000 0 0.108 0.892
226 0 0 1000000000 0 0.6968 0.3032
227 0 0 1000000000 0 0.1918 0.8082
228 0 0 1000000000 0 0.9819 0.01809
229 0 0 1000000000 0 0.6409 0.3591
230 0 0 1000000000 0 0.5368 0.4632
231 0 0 1000000000 0 0.6651 0.3349
232 0 0 1000000000 0 0.1897 0.8103
233 0 0 1000000000 0 0.253 0.747
234 0 0 1000000000 0 0.3609 0.6391
235 0 0 1000000000 0 0.1885 0.8115
236 0 0 1000000000 0 0.00884 0.9912
237 0 0 1000000000 0 0.4141 0.5859
238 0 0 1000000000 0 0.02795 0.972
239 0 0 1000000000 0 0.1901 0.8099
240 0 0 1000000000 0 0.6956 0.3044
241 0 0 1000000000 0 0.3492 0.6508
242 0 0 1000000000 0 0.2339 0.7661
243 0 0 1000000000 0 0.2716 0.7284
244 0 0 1000000000 0 0.7844 0.2156
245 0 0 1000000000 0 0.4763 0.5237
246 0 0 1000000000 0 0.2452 0.7548
247 0 0 1000000000 0 0.3374 0.6626
248 0 0 1000000000 0 0.8647 0.1353
249 0 0 1000000000 0 0.7325 0.2675
250 0 0 1000000000 0 0.829 0.171
251 0 0 1000000000 0 0.5097 0.4903
252 0 0 1000000000 0 0.8911 0.1089
253 0 0 1000000000 0 0.7546 0.2454
254 0 0 1000000000 0 0.09875 0.9012
255 0 0 1000000000 0 0.9941 0.0059
256 0 0 1000000000 0 0.4559 0.5441
257 0 0 1000000000 0 0.9968 0.00318
258 0 0 1000000000 0 0.6145 0.3855
259 0 0 1000000000 0 0.9292 0.07081
260 0 0 1000000000 0 0.9405 0.05954
261 0 0 1000000000 0 0.8669 0.1331
262 0 0 1000000000 0 0.1166 0.8834
263 0 0 1000000000 0 0.9958 0.00417
264 0 0 1000000000 0 0.955 0.04501
265 0 0 1000000000 0 0.8732 0.1268
266 0 0 1000000000 0 0.2485 0.7515
267 0 0 1000000000 0 0.9713 0.0287
268 0 0 1000000000 0 0.786 0.214
269 0 0 1000000000 0 0.00901 0.991
270 0 0 1000000000 0 0.1177 0.8823
271 0 0 1000000000 0 0.8008 0.1992
272 0 0 1000000000 0 0.8592 0.1408
273 0 0 1000000000 0 0.4018 0.5982
274 0 0 1000000000 0 0.6639 0.3361
275 0 0 1000000000 0 0.6232 0.3768
276 0 0 1000000000 0 0.1946 0.8054
277 0 0 1000000000 0 0.5116 0.4884
278 0 0 1000000000 0 0.2683 0.7317
279 0 0 1000000000 0 0.911 0.08897
280 0 0 1000000000 0 0.3743 0.6257
281 0 0 1000000000 0 0.7135 0.2865
282 0 0 1000000000 0 0.6638 0.3362
283 0 0 1000000000 0 0.2179 0.7821
284 0 0 1000000000 0 0.3381 0.6619
285 0 0 1000000000 0 0.7593 0.2407
286 0 0 1000000000 0 0.4366 0.5634
287 0 0 1000000000 0 0.9342 0.06577
288 0 0 1000000000 0 0.1836 0.8164
289 0 0 1000000000 0 0.00221 0.9978
290 0 0 1000000000 0 0.9332 0.06681
291 0 0 1000000000 0 0.3435 0.6565
292 0 0 1000000000 0 0.9078 0.09215
293 0 0 1000000000 0 0.2963 0.7037
294 0 0 1000000000 0 0.8437 0.1563
295 0 0 1000000000 0 0.3487 0.6513
296 0 0 1000000000 0 0.6147 0.3853
297 0 0 1000000000 0 0.821 0.179
298 0 0 1000000000 0 0.3726 0.6274
299 0 0 1000000000 0 0.59 0.41
300 0 0 1000000000 0 0.3691 0.6309
301 0 0 1000000000 0 0.5759 0.4241
302 0 0 1000000000 0 0.04336 0.9566
303 0 0 1000000000 0 0.2906 0.7094
304 0 0 1000000000 0 0.5595 0.4405
305 0 0 1000000000 0 0.6894 0.3106
306 0 0 1000000000 0 0.2207 0.7793
307 0 0 1000000000 0 0.6392 0.3608
308 0 0 1000000000 0 0.8356 0.1644
309 0 0 1000000000 0 0 1
310 0 0 1000000000 0 0.1581 0.8419
311 0 0 1000000000 0 0.8322 0.1678
312 0 0 1000000000 0 0.8368 0.1632
313 0 0 1000000000 0 0.9306 0.06944
314 0 0 1000000000 0 0.3636 0.6364
315 0 0 1000000000 0 0.85 0.15
316 0 0 1000000000 0 0.00788 0.9921
317 0 0 1000000000 0 0.9036 0.09645
318 0 0 1000000000 0 0.1053 0.8947
319 0 0 1000000000 0 0.9661 0.03394
320 0 0 1000000000 0 0.9366 0.06338
321 0 0 1000000000 0 0.4153 0.5847
322 0 0 1000000000 0 0.2284 0.7716
323 0 0 1000000000 0 0.08412 0.9159
324 0 0 1000000000 0 0.4132 0.5868
325 0 0 1000000000 0 0.3538 0.6462
326 0 0 1000000000 0 0.9611 0.03887
327 0 0 1000000000 0 0.03182 0.9682
328 0 0 1000000000 0 0.4182 0.5818
329 0 0 1000000000 0 0.5339 0.4661
330 0 0 1000000000 0 0.548 0.452
331 0 0 1000000000 0 0.9359 0.06414
